c Modular CNF with 4 modules
c Generated CNF instance
p cnf 40 640
9 7 4 0
9 7 -4 0
9 -7 4 0
-9 7 4 0
3 10 5 0
3 10 -5 0
3 -10 5 0
-3 10 5 0
8 3 2 0
8 3 -2 0
8 -3 2 0
-8 3 2 0
7 9 1 0
7 9 -1 0
7 -9 1 0
-7 9 1 0
4 10 1 0
4 10 -1 0
4 -10 1 0
-4 10 1 0
7 1 3 0
7 1 -3 0
7 -1 3 0
-7 1 3 0
10 3 5 0
10 3 -5 0
10 -3 5 0
-10 3 5 0
8 5 2 0
8 5 -2 0
8 -5 2 0
-8 5 2 0
9 8 5 0
9 8 -5 0
9 -8 5 0
-9 8 5 0
2 10 7 0
2 10 -7 0
2 -10 7 0
-2 10 7 0
2 10 7 0
2 10 -7 0
2 -10 7 0
-2 10 7 0
6 3 7 0
6 3 -7 0
6 -3 7 0
-6 3 7 0
2 8 10 0
2 8 -10 0
2 -8 10 0
-2 8 10 0
9 10 3 0
9 10 -3 0
9 -10 3 0
-9 10 3 0
1 2 9 0
1 2 -9 0
1 -2 9 0
-1 2 9 0
7 2 8 0
7 2 -8 0
7 -2 8 0
-7 2 8 0
1 8 5 0
1 8 -5 0
1 -8 5 0
-1 8 5 0
1 10 4 0
1 10 -4 0
1 -10 4 0
-1 10 4 0
3 2 9 0
3 2 -9 0
3 -2 9 0
-3 2 9 0
2 4 1 0
2 4 -1 0
2 -4 1 0
-2 4 1 0
4 1 10 0
4 1 -10 0
4 -1 10 0
-4 1 10 0
8 6 7 0
8 6 -7 0
8 -6 7 0
-8 6 7 0
8 3 5 0
8 3 -5 0
8 -3 5 0
-8 3 5 0
4 7 1 0
4 7 -1 0
4 -7 1 0
-4 7 1 0
10 7 3 0
10 7 -3 0
10 -7 3 0
-10 7 3 0
1 2 5 0
1 2 -5 0
1 -2 5 0
-1 2 5 0
10 6 7 0
10 6 -7 0
10 -6 7 0
-10 6 7 0
1 9 7 0
1 9 -7 0
1 -9 7 0
-1 9 7 0
6 1 2 0
6 1 -2 0
6 -1 2 0
-6 1 2 0
6 9 7 0
6 9 -7 0
6 -9 7 0
-6 9 7 0
2 7 3 0
2 7 -3 0
2 -7 3 0
-2 7 3 0
10 2 5 0
10 2 -5 0
10 -2 5 0
-10 2 5 0
2 1 4 0
2 1 -4 0
2 -1 4 0
-2 1 4 0
10 7 9 0
10 7 -9 0
10 -7 9 0
-10 7 9 0
5 10 9 0
5 10 -9 0
5 -10 9 0
-5 10 9 0
8 4 9 0
8 4 -9 0
8 -4 9 0
-8 4 9 0
5 3 1 0
5 3 -1 0
5 -3 1 0
-5 3 1 0
7 5 2 0
7 5 -2 0
7 -5 2 0
-7 5 2 0
6 9 5 0
6 9 -5 0
6 -9 5 0
-6 9 5 0
7 8 1 0
7 8 -1 0
7 -8 1 0
-7 8 1 0
16 20 14 0
16 20 -14 0
16 -20 14 0
-16 20 14 0
18 12 16 0
18 12 -16 0
18 -12 16 0
-18 12 16 0
19 12 14 0
19 12 -14 0
19 -12 14 0
-19 12 14 0
13 12 20 0
13 12 -20 0
13 -12 20 0
-13 12 20 0
16 17 15 0
16 17 -15 0
16 -17 15 0
-16 17 15 0
15 13 11 0
15 13 -11 0
15 -13 11 0
-15 13 11 0
20 17 12 0
20 17 -12 0
20 -17 12 0
-20 17 12 0
15 14 12 0
15 14 -12 0
15 -14 12 0
-15 14 12 0
19 11 12 0
19 11 -12 0
19 -11 12 0
-19 11 12 0
13 14 16 0
13 14 -16 0
13 -14 16 0
-13 14 16 0
17 15 20 0
17 15 -20 0
17 -15 20 0
-17 15 20 0
14 17 18 0
14 17 -18 0
14 -17 18 0
-14 17 18 0
11 16 19 0
11 16 -19 0
11 -16 19 0
-11 16 19 0
14 19 12 0
14 19 -12 0
14 -19 12 0
-14 19 12 0
18 16 13 0
18 16 -13 0
18 -16 13 0
-18 16 13 0
19 14 17 0
19 14 -17 0
19 -14 17 0
-19 14 17 0
12 18 17 0
12 18 -17 0
12 -18 17 0
-12 18 17 0
13 14 18 0
13 14 -18 0
13 -14 18 0
-13 14 18 0
18 13 11 0
18 13 -11 0
18 -13 11 0
-18 13 11 0
19 16 15 0
19 16 -15 0
19 -16 15 0
-19 16 15 0
13 17 14 0
13 17 -14 0
13 -17 14 0
-13 17 14 0
11 20 13 0
11 20 -13 0
11 -20 13 0
-11 20 13 0
20 18 19 0
20 18 -19 0
20 -18 19 0
-20 18 19 0
16 18 11 0
16 18 -11 0
16 -18 11 0
-16 18 11 0
18 14 12 0
18 14 -12 0
18 -14 12 0
-18 14 12 0
17 16 15 0
17 16 -15 0
17 -16 15 0
-17 16 15 0
12 19 15 0
12 19 -15 0
12 -19 15 0
-12 19 15 0
11 19 17 0
11 19 -17 0
11 -19 17 0
-11 19 17 0
15 12 19 0
15 12 -19 0
15 -12 19 0
-15 12 19 0
15 20 11 0
15 20 -11 0
15 -20 11 0
-15 20 11 0
17 18 12 0
17 18 -12 0
17 -18 12 0
-17 18 12 0
14 19 20 0
14 19 -20 0
14 -19 20 0
-14 19 20 0
19 18 13 0
19 18 -13 0
19 -18 13 0
-19 18 13 0
14 19 15 0
14 19 -15 0
14 -19 15 0
-14 19 15 0
17 14 15 0
17 14 -15 0
17 -14 15 0
-17 14 15 0
12 17 11 0
12 17 -11 0
12 -17 11 0
-12 17 11 0
20 13 12 0
20 13 -12 0
20 -13 12 0
-20 13 12 0
12 16 15 0
12 16 -15 0
12 -16 15 0
-12 16 15 0
11 19 13 0
11 19 -13 0
11 -19 13 0
-11 19 13 0
13 19 20 0
13 19 -20 0
13 -19 20 0
-13 19 20 0
30 25 27 0
30 25 -27 0
30 -25 27 0
-30 25 27 0
30 21 22 0
30 21 -22 0
30 -21 22 0
-30 21 22 0
21 30 26 0
21 30 -26 0
21 -30 26 0
-21 30 26 0
28 26 21 0
28 26 -21 0
28 -26 21 0
-28 26 21 0
24 21 23 0
24 21 -23 0
24 -21 23 0
-24 21 23 0
24 22 21 0
24 22 -21 0
24 -22 21 0
-24 22 21 0
21 28 29 0
21 28 -29 0
21 -28 29 0
-21 28 29 0
21 23 26 0
21 23 -26 0
21 -23 26 0
-21 23 26 0
23 27 22 0
23 27 -22 0
23 -27 22 0
-23 27 22 0
29 23 21 0
29 23 -21 0
29 -23 21 0
-29 23 21 0
21 23 25 0
21 23 -25 0
21 -23 25 0
-21 23 25 0
24 28 22 0
24 28 -22 0
24 -28 22 0
-24 28 22 0
27 30 25 0
27 30 -25 0
27 -30 25 0
-27 30 25 0
25 30 27 0
25 30 -27 0
25 -30 27 0
-25 30 27 0
24 21 30 0
24 21 -30 0
24 -21 30 0
-24 21 30 0
21 22 29 0
21 22 -29 0
21 -22 29 0
-21 22 29 0
23 25 30 0
23 25 -30 0
23 -25 30 0
-23 25 30 0
29 28 26 0
29 28 -26 0
29 -28 26 0
-29 28 26 0
29 26 27 0
29 26 -27 0
29 -26 27 0
-29 26 27 0
23 29 28 0
23 29 -28 0
23 -29 28 0
-23 29 28 0
22 26 30 0
22 26 -30 0
22 -26 30 0
-22 26 30 0
22 23 27 0
22 23 -27 0
22 -23 27 0
-22 23 27 0
26 29 23 0
26 29 -23 0
26 -29 23 0
-26 29 23 0
22 24 25 0
22 24 -25 0
22 -24 25 0
-22 24 25 0
25 21 22 0
25 21 -22 0
25 -21 22 0
-25 21 22 0
30 29 26 0
30 29 -26 0
30 -29 26 0
-30 29 26 0
24 21 26 0
24 21 -26 0
24 -21 26 0
-24 21 26 0
24 25 22 0
24 25 -22 0
24 -25 22 0
-24 25 22 0
26 24 28 0
26 24 -28 0
26 -24 28 0
-26 24 28 0
28 26 27 0
28 26 -27 0
28 -26 27 0
-28 26 27 0
23 30 28 0
23 30 -28 0
23 -30 28 0
-23 30 28 0
26 30 23 0
26 30 -23 0
26 -30 23 0
-26 30 23 0
21 30 28 0
21 30 -28 0
21 -30 28 0
-21 30 28 0
25 29 24 0
25 29 -24 0
25 -29 24 0
-25 29 24 0
25 29 24 0
25 29 -24 0
25 -29 24 0
-25 29 24 0
29 27 21 0
29 27 -21 0
29 -27 21 0
-29 27 21 0
21 24 28 0
21 24 -28 0
21 -24 28 0
-21 24 28 0
24 25 29 0
24 25 -29 0
24 -25 29 0
-24 25 29 0
21 23 30 0
21 23 -30 0
21 -23 30 0
-21 23 30 0
22 28 29 0
22 28 -29 0
22 -28 29 0
-22 28 29 0
33 35 38 0
33 35 -38 0
33 -35 38 0
-33 35 38 0
31 37 39 0
31 37 -39 0
31 -37 39 0
-31 37 39 0
35 38 39 0
35 38 -39 0
35 -38 39 0
-35 38 39 0
33 31 40 0
33 31 -40 0
33 -31 40 0
-33 31 40 0
35 38 33 0
35 38 -33 0
35 -38 33 0
-35 38 33 0
33 37 31 0
33 37 -31 0
33 -37 31 0
-33 37 31 0
32 40 36 0
32 40 -36 0
32 -40 36 0
-32 40 36 0
39 33 31 0
39 33 -31 0
39 -33 31 0
-39 33 31 0
38 35 33 0
38 35 -33 0
38 -35 33 0
-38 35 33 0
31 37 40 0
31 37 -40 0
31 -37 40 0
-31 37 40 0
40 39 36 0
40 39 -36 0
40 -39 36 0
-40 39 36 0
38 36 39 0
38 36 -39 0
38 -36 39 0
-38 36 39 0
36 35 34 0
36 35 -34 0
36 -35 34 0
-36 35 34 0
35 33 40 0
35 33 -40 0
35 -33 40 0
-35 33 40 0
31 39 38 0
31 39 -38 0
31 -39 38 0
-31 39 38 0
38 36 35 0
38 36 -35 0
38 -36 35 0
-38 36 35 0
33 38 31 0
33 38 -31 0
33 -38 31 0
-33 38 31 0
34 36 38 0
34 36 -38 0
34 -36 38 0
-34 36 38 0
35 32 40 0
35 32 -40 0
35 -32 40 0
-35 32 40 0
37 32 40 0
37 32 -40 0
37 -32 40 0
-37 32 40 0
31 39 36 0
31 39 -36 0
31 -39 36 0
-31 39 36 0
36 39 40 0
36 39 -40 0
36 -39 40 0
-36 39 40 0
38 37 40 0
38 37 -40 0
38 -37 40 0
-38 37 40 0
35 37 40 0
35 37 -40 0
35 -37 40 0
-35 37 40 0
37 35 34 0
37 35 -34 0
37 -35 34 0
-37 35 34 0
38 37 33 0
38 37 -33 0
38 -37 33 0
-38 37 33 0
34 38 33 0
34 38 -33 0
34 -38 33 0
-34 38 33 0
39 40 36 0
39 40 -36 0
39 -40 36 0
-39 40 36 0
39 35 38 0
39 35 -38 0
39 -35 38 0
-39 35 38 0
33 40 36 0
33 40 -36 0
33 -40 36 0
-33 40 36 0
33 35 32 0
33 35 -32 0
33 -35 32 0
-33 35 32 0
33 40 31 0
33 40 -31 0
33 -40 31 0
-33 40 31 0
33 36 37 0
33 36 -37 0
33 -36 37 0
-33 36 37 0
40 32 35 0
40 32 -35 0
40 -32 35 0
-40 32 35 0
37 36 35 0
37 36 -35 0
37 -36 35 0
-37 36 35 0
40 39 35 0
40 39 -35 0
40 -39 35 0
-40 39 35 0
33 39 36 0
33 39 -36 0
33 -39 36 0
-33 39 36 0
38 34 35 0
38 34 -35 0
38 -34 35 0
-38 34 35 0
31 40 33 0
31 40 -33 0
31 -40 33 0
-31 40 33 0
34 31 38 0
34 31 -38 0
34 -31 38 0
-34 31 38 0
